BAYES
6
2 2 2 2 3 3
6
1 4
3 3 4 0
2 0 1
2 0 2
1 3
3 2 1 5

3
0.3 0.5 0.2
12
0.75 0.64 0.72 0.7 0.88 0.9 0.25 0.36 0.28 0.3 0.12 0.1
4
0.96 0.92 0.04 0.08
4
0.25 0.2 0.75 0.8
2
0.6 0.4
12
0.48 0.58 0.56 0.7 0.42 0.24 0.36 0.21 0.1 0.18 0.08 0.09